nNurses = 92;
nHours = 31;
minHours = 3;
maxHours = 8;
maxConsec = 6;
maxPresence = 31;
demand = [12, 17, 14, 12, 12, 7, 6, 8, 12, 12, 10, 6, 10, 6, 10, 11, 12, 10, 10, 15, 18, 23, 19, 16, 21, 20, 16, 11, 6, 10, 9];
